experiment/data/hgs-res/Vrp-Set-X-n275/Vrp-Set-X-n275-hgs/0.hgs1.vrp
NAME : 0
COMMENT : CVRP Instance
TYPE : CVRP
DIMENSION : 275
EDGE_WEIGHT_TYPE : EUC_2D
CAPACITY : 10
NODE_COORD_SECTION
1	409.0	418.0
2	378.0	220.0
3	469.0	585.0
4	91.0	695.0
5	351.0	130.0
6	424.0	101.0
7	70.0	693.0
8	324.0	133.0
9	367.0	215.0
10	218.0	906.0
11	90.0	688.0
12	417.0	223.0
13	42.0	693.0
14	134.0	482.0
15	594.0	488.0
16	431.0	269.0
17	383.0	606.0
18	100.0	597.0
19	85.0	697.0
20	378.0	218.0
21	196.0	640.0
22	213.0	635.0
23	520.0	537.0
24	509.0	542.0
25	388.0	549.0
26	476.0	583.0
27	409.0	565.0
28	155.0	828.0
29	60.0	690.0
30	415.0	269.0
31	127.0	578.0
32	363.0	304.0
33	392.0	329.0
34	424.0	660.0
35	505.0	683.0
36	372.0	120.0
37	438.0	620.0
38	578.0	421.0
39	116.0	716.0
40	107.0	719.0
41	117.0	677.0
42	324.0	275.0
43	246.0	789.0
44	363.0	223.0
45	139.0	682.0
46	376.0	197.0
47	397.0	52.0
48	107.0	727.0
49	64.0	671.0
50	369.0	275.0
51	96.0	659.0
52	129.0	627.0
53	45.0	581.0
54	403.0	585.0
55	70.0	731.0
56	528.0	736.0
57	379.0	320.0
58	424.0	608.0
59	436.0	607.0
60	54.0	687.0
61	342.0	544.0
62	595.0	525.0
63	508.0	336.0
64	338.0	90.0
65	510.0	165.0
66	269.0	820.0
67	18.0	776.0
68	316.0	293.0
69	575.0	485.0
70	335.0	179.0
71	1.0	727.0
72	571.0	436.0
73	15.0	696.0
74	227.0	760.0
75	324.0	538.0
76	523.0	519.0
77	620.0	500.0
78	217.0	427.0
79	53.0	809.0
80	206.0	622.0
81	602.0	506.0
82	48.0	771.0
83	486.0	347.0
84	100.0	740.0
85	161.0	660.0
86	528.0	559.0
87	386.0	460.0
88	330.0	295.0
89	225.0	345.0
90	301.0	729.0
91	334.0	243.0
92	99.0	819.0
93	219.0	610.0
94	70.0	560.0
95	334.0	161.0
96	589.0	420.0
97	428.0	605.0
98	478.0	509.0
99	76.0	753.0
100	464.0	167.0
101	18.0	327.0
102	451.0	63.0
103	406.0	145.0
104	431.0	608.0
105	213.0	707.0
106	95.0	635.0
107	550.0	573.0
108	172.0	811.0
109	85.0	789.0
110	119.0	788.0
111	348.0	210.0
112	571.0	227.0
113	364.0	347.0
114	591.0	428.0
115	436.0	611.0
116	471.0	928.0
117	416.0	528.0
118	504.0	383.0
119	217.0	255.0
120	255.0	720.0
121	100.0	830.0
122	82.0	693.0
123	290.0	209.0
124	522.0	281.0
125	331.0	406.0
126	426.0	244.0
127	529.0	618.0
128	638.0	99.0
129	153.0	648.0
130	124.0	719.0
131	419.0	70.0
132	12.0	653.0
133	433.0	169.0
134	370.0	686.0
135	811.0	620.0
136	160.0	691.0
137	204.0	673.0
138	57.0	666.0
139	326.0	401.0
140	627.0	541.0
141	332.0	114.0
142	497.0	575.0
143	469.0	605.0
144	49.0	648.0
145	547.0	588.0
146	305.0	746.0
147	192.0	805.0
148	370.0	621.0
149	759.0	660.0
150	89.0	757.0
151	287.0	223.0
152	380.0	129.0
153	286.0	386.0
154	23.0	745.0
155	21.0	738.0
156	441.0	683.0
157	402.0	577.0
158	255.0	442.0
159	260.0	288.0
160	322.0	693.0
161	502.0	313.0
162	431.0	473.0
163	106.0	701.0
164	390.0	398.0
165	443.0	175.0
166	335.0	272.0
167	156.0	178.0
168	390.0	225.0
169	194.0	867.0
170	170.0	621.0
171	311.0	241.0
172	358.0	323.0
173	427.0	911.0
174	555.0	239.0
175	55.0	781.0
176	374.0	566.0
177	388.0	263.0
178	352.0	701.0
179	82.0	671.0
180	451.0	565.0
181	91.0	833.0
182	292.0	609.0
183	466.0	592.0
184	561.0	488.0
185	131.0	779.0
186	186.0	699.0
187	567.0	525.0
188	635.0	481.0
189	404.0	512.0
190	459.0	694.0
191	456.0	399.0
192	91.0	725.0
193	483.0	196.0
194	317.0	460.0
195	128.0	824.0
196	481.0	179.0
197	517.0	442.0
198	97.0	705.0
199	263.0	806.0
200	381.0	215.0
201	386.0	164.0
202	497.0	137.0
203	311.0	737.0
204	100.0	611.0
205	414.0	525.0
206	79.0	643.0
207	284.0	318.0
208	155.0	706.0
209	426.0	661.0
210	297.0	164.0
211	454.0	197.0
212	499.0	697.0
213	480.0	310.0
214	145.0	692.0
215	390.0	236.0
216	350.0	333.0
217	605.0	460.0
218	709.0	391.0
219	426.0	192.0
220	98.0	767.0
221	141.0	672.0
222	399.0	684.0
223	107.0	853.0
224	56.0	774.0
225	309.0	266.0
226	376.0	510.0
227	205.0	771.0
228	105.0	676.0
229	682.0	508.0
230	236.0	173.0
231	256.0	311.0
232	59.0	713.0
233	307.0	278.0
234	735.0	524.0
235	566.0	711.0
236	320.0	437.0
237	71.0	844.0
238	18.0	737.0
239	430.0	559.0
240	85.0	479.0
241	376.0	276.0
242	171.0	400.0
243	430.0	237.0
244	201.0	588.0
245	478.0	593.0
246	291.0	132.0
247	464.0	582.0
248	669.0	494.0
249	562.0	733.0
250	298.0	173.0
251	438.0	567.0
252	402.0	206.0
253	150.0	291.0
254	364.0	561.0
255	415.0	580.0
256	87.0	693.0
257	502.0	751.0
258	132.0	831.0
259	574.0	481.0
260	19.0	707.0
261	486.0	590.0
262	399.0	205.0
263	165.0	712.0
264	63.0	746.0
265	50.0	740.0
266	514.0	246.0
267	400.0	617.0
268	421.0	162.0
269	497.0	582.0
270	260.0	817.0
271	40.0	768.0
272	58.0	721.0
273	332.0	614.0
274	190.0	878.0
275	346.0	218.0
DEMAND_SECTION
1	0
2	1
3	1
4	1
5	1
6	1
7	1
8	1
9	1
10	1
11	1
12	1
13	1
14	1
15	1
16	1
17	1
18	1
19	1
20	1
21	1
22	1
23	1
24	1
25	1
26	1
27	1
28	1
29	1
30	1
31	1
32	1
33	1
34	1
35	1
36	1
37	1
38	1
39	1
40	1
41	1
42	1
43	1
44	1
45	1
46	1
47	1
48	1
49	1
50	1
51	1
52	1
53	1
54	1
55	1
56	1
57	1
58	1
59	1
60	1
61	1
62	1
63	1
64	1
65	1
66	1
67	1
68	1
69	1
70	1
71	1
72	1
73	1
74	1
75	1
76	1
77	1
78	1
79	1
80	1
81	1
82	1
83	1
84	1
85	1
86	1
87	1
88	1
89	1
90	1
91	1
92	1
93	1
94	1
95	1
96	1
97	1
98	1
99	1
100	1
101	1
102	1
103	1
104	1
105	1
106	1
107	1
108	1
109	1
110	1
111	1
112	1
113	1
114	1
115	1
116	1
117	1
118	1
119	1
120	1
121	1
122	1
123	1
124	1
125	1
126	1
127	1
128	1
129	1
130	1
131	1
132	1
133	1
134	1
135	1
136	1
137	1
138	1
139	1
140	1
141	1
142	1
143	1
144	1
145	1
146	1
147	1
148	1
149	1
150	1
151	1
152	1
153	1
154	1
155	1
156	1
157	1
158	1
159	1
160	1
161	1
162	1
163	1
164	1
165	1
166	1
167	1
168	1
169	1
170	1
171	1
172	1
173	1
174	1
175	1
176	1
177	1
178	1
179	1
180	1
181	1
182	1
183	1
184	1
185	1
186	1
187	1
188	1
189	1
190	1
191	1
192	1
193	1
194	1
195	1
196	1
197	1
198	1
199	1
200	1
201	1
202	1
203	1
204	1
205	1
206	1
207	1
208	1
209	1
210	1
211	1
212	1
213	1
214	1
215	1
216	1
217	1
218	1
219	1
220	1
221	1
222	1
223	1
224	1
225	1
226	1
227	1
228	1
229	1
230	1
231	1
232	1
233	1
234	1
235	1
236	1
237	1
238	1
239	1
240	1
241	1
242	1
243	1
244	1
245	1
246	1
247	1
248	1
249	1
250	1
251	1
252	1
253	1
254	1
255	1
256	1
257	1
258	1
259	1
260	1
261	1
262	1
263	1
264	1
265	1
266	1
267	1
268	1
269	1
270	1
271	1
272	1
273	1
274	1
275	1
DEPOT_SECTION
1
-1
EOF
