experiment/data/hgs-res/Vrp-Set-X-n275/Vrp-Set-X-n275-hgs/0.hgs1.tour
Route #1: 193 157 77 241 13 239 100 252 88 152
Route #2: 235 138 124 163
Route #3: 206 230 158 118 166 229 122 150 170 90
Route #4: 171 31 165 41 224 232 67 87 215 112
Route #5: 274 110 69 94 7 4 35 151 200 45
Route #6: 176 214 167 199 19 1 8 43 49 240
Route #7: 249 209 245 140 63 46 130 101 5 102
Route #8: 125 242 210 164 132 267 218 261 251 11
Route #9: 123 265 173 111 127 64 201 99 195 192
Route #10: 190 117 82 62 160 212 15 29 56 32
Route #11: 196 71 113 216 187 76 80 14 68 258
Route #12: 61 139 148 134 233 228 247 217 95 37
Route #13: 161 97 75 22 23 85 144 106 186 183
Route #14: 141 268 260 244 142 182 25 2 246 179
Route #15: 126 234 248 55 256 211 34 189 155 36
Route #16: 26 156 53 57 96 103 114 58 250 238
Route #17: 16 147 159 177 133 221 208 33 266 254
Route #18: 86 225 74 60 253 175 24 116 204 188
Route #19: 73 226 146 107 27 168 273 9 172 115
Route #20: 272 89 202 145 65 269 198 42 119 181
Route #21: 104 194 257 222 236 180 120 91 109 184
Route #22: 21 136 185 262 207 213 135 20 79 92
Route #23: 38 39 191 54 263 98 149 83 47 129
Route #24: 271 264 66 270 81 223 174 78 108 219
Route #25: 227 10 255 121 18 3 197 162 44 84
Route #26: 243 169 128 220 40 50 105 203 17 30
Route #27: 51 178 6 28 12 59 48 137 143 205
Route #28: 231 153 154 237 70 259 72 131 52 93
Cost 21246.3
